100
547 125 281 431 17 499 953 429 835 961 21 14 437 960 455 798 672 46 466 644 160 133 668 301 691 278 77 375 788 349 546 774 278 867 42 451 242 171 900 167 781 472 946 886 17 952 559 727 106 719 722 965 596 40 655 666 130 809 37 588 623 947 168 219 677 484 919 160 660 214 932 368 416 511 930 841 625 319 628 881 466 149 790 989 298 53 324 193 648 504 847 197 640 585 129 496 212 23 392 377 
11526 2633 5921 9081 358 10514 20080 9039 17594 20249 442 294 9208 20228 9587 16814 14159 969 9819 13569 3371 2802 14075 6342 14560 5857 1622 7901 16604 7353 11504 16309 5857 18268 884 9503 5099 3603 18964 3518 16456 9945 19933 18669 358 20059 11778 15318 2233 15150 15213 20333 12558 842 13801 14033 2739 17046 779 12389 13127 19954 3539 4614 14265 10198 19364 3371 13907 4509 19638 7754 8765 10767 19596 17720 13169 6721 13232 18563 9819 3139 16646 20839 6279 1116 6827 4066 13654 10619 17847 4151 13485 12326 2718 10451 4467 484 8259 7943 
24285
